(set-info :smt-lib-version 2.6)
(set-logic QF_FPBV)
(set-option :produce-models true)
(set-info :source |Random FP created by PyMPF|)
(set-info :license |https://www.gnu.org/licenses/gpl-3.0.html|)
(set-info :category random)
(set-info :status sat)
;; (fp.to.ubv RTP -halfpoint)
;; This benchmark relies on partial functions.
(declare-const x Float32)
(assert (= x ((_ to_fp 8 24) #xC93571B0)))
;; x should be Float32(0xC93571B0 [Rational(-743195), -743195.000000])

(declare-const y (_ BitVec 8))
(assert (= y ((_ fp.to_ubv 8) RTP x)))
;; y should be unspecified

(declare-const z (_ BitVec 8))
(assert (= y z))
(check-sat)
(exit)
